NAME: cities_5_1
TYPE: TSP
COMMENT: Generated from CSV
DIMENSION: 5
EDGE_WEIGHT_TYPE: EUC_2D
NODE_COORD_SECTION
1 55.91407830640339 25.870240900067987
2 88.05546096845246 66.19042608999479
3 55.09266586647061 73.55058403579116
4 58.228623761872576 52.14994480164585
5 77.5078204745198 38.83491956442688
EOF
